<number of tasks>
30

<cycle time>
75

<task times>
1 8
2 7
3 19
4 10
5 2
6 6
7 14
8 10
9 1
10 4
11 14
12 15
13 5
14 12
15 9
16 10
17 2
18 10
19 18
20 16
21 21
22 14
23 16
24 7
25 17
26 9
27 25
28 7
29 14
30 2

<precedence relations>
1,4
1,5
2,11
2,12
3,16
3,17
4,7
5,6
6,7
7,8
8,9
9,26
10,24
12,13
13,14
14,15
14,20
15,22
16,20
17,18
18,19
20,21
20,24
21,22
22,23
23,27
24,25
25,26
26,27
27,28
27,29
29,30

<setup times forward>
1,10:4
1,11:4
1,14:4
1,15:1
1,16:1
1,18:4
1,19:4
1,20:2
1,21:2
1,22:2
1,23:1
1,24:2
1,25:2
2,7:4
2,8:1
2,9:1
2,10:4
2,11:4
2,16:1
2,18:4
2,19:4
3,7:4
3,8:1
3,9:1
3,10:4
3,11:4
3,14:4
3,15:1
3,16:1
4,7:4
4,10:4
4,11:4
4,14:4
4,15:1
4,16:1
4,18:4
4,19:4
4,20:2
4,21:2
4,22:2
4,23:1
4,24:2
4,25:2
5,10:4
5,11:4
5,14:4
5,15:1
5,16:1
5,18:4
5,19:4
5,20:2
5,21:2
5,22:2
5,23:1
5,24:2
5,25:2
6,7:4
6,10:4
6,11:4
6,14:4
6,15:1
6,16:1
6,18:4
6,19:4
6,20:2
6,21:2
6,22:2
6,23:1
6,24:2
6,25:2
7,2:4
7,3:4
7,8:5
7,12:4
7,13:4
7,15:5
7,16:5
7,17:4
7,20:2
7,21:2
7,22:2
7,23:3
7,24:2
7,25:2
8,2:1
8,3:1
8,9:2
8,10:5
8,11:5
8,12:1
8,13:1
8,14:5
8,17:1
8,18:5
8,19:5
8,20:3
8,21:3
8,22:3
8,23:2
8,24:3
8,25:3
9,2:1
9,3:1
9,10:3
9,11:3
9,12:1
9,13:1
9,14:3
9,15:2
9,16:2
9,17:1
9,18:3
9,19:3
9,20:1
9,21:1
9,22:1
9,24:1
9,25:1
10,1:4
10,2:4
10,3:4
10,4:4
10,5:4
10,6:4
10,8:5
10,9:3
10,12:4
10,13:4
10,15:5
10,16:5
10,17:4
10,20:2
10,21:2
10,22:2
10,23:3
10,24:2
11,1:4
11,3:4
11,4:4
11,5:4
11,6:4
11,8:5
11,9:3
11,12:4
11,13:4
11,15:5
11,16:5
11,17:4
11,20:2
11,21:2
11,22:2
11,23:3
11,24:2
11,25:2
11,26:3
11,27:3
11,28:3
11,29:3
11,30:3
12,7:4
12,8:1
12,9:1
12,10:4
12,11:4
12,16:1
12,18:4
12,19:4
13,7:4
13,8:1
13,9:1
13,10:4
13,11:4
13,14:4
13,16:1
13,18:4
13,19:4
14,1:4
14,3:4
14,4:4
14,5:4
14,6:4
14,8:5
14,9:3
14,15:5
14,16:5
14,17:4
14,20:2
15,1:1
15,3:1
15,4:1
15,5:1
15,6:1
15,7:5
15,9:2
15,10:5
15,11:5
15,17:1
15,18:5
15,19:5
15,20:3
15,21:3
15,22:3
15,24:3
15,25:3
15,26:2
16,1:1
16,2:1
16,4:1
16,5:1
16,6:1
16,7:5
16,9:2
16,10:5
16,11:5
16,12:1
16,13:1
16,14:5
16,17:1
16,18:5
16,19:5
16,20:3
17,7:4
17,8:1
17,9:1
17,10:4
17,11:4
17,14:4
17,15:1
17,16:1
17,18:4
17,20:2
17,21:2
17,22:2
17,23:1
17,24:2
17,25:2
17,26:1
17,27:1
17,28:1
17,29:1
17,30:1
18,1:4
18,2:4
18,4:4
18,5:4
18,6:4
18,8:5
18,9:3
18,12:4
18,13:4
18,15:5
18,16:5
18,20:2
18,21:2
18,22:2
18,23:3
18,24:2
18,25:2
18,26:3
18,27:3
18,28:3
18,29:3
18,30:3
19,1:4
19,2:4
19,4:4
19,5:4
19,6:4
19,8:5
19,9:3
19,12:4
19,13:4
19,15:5
19,16:5
19,20:2
19,21:2
19,22:2
19,23:3
19,24:2
19,25:2
19,26:3
19,27:3
19,28:3
19,29:3
19,30:3
20,1:2
20,4:2
20,5:2
20,6:2
20,7:2
20,8:3
20,9:1
20,10:2
20,11:2
20,15:3
20,17:2
20,18:2
20,19:2
21,1:2
21,4:2
21,5:2
21,6:2
21,7:2
21,8:3
21,9:1
21,10:2
21,11:2
21,15:3
21,17:2
21,18:2
21,19:2
21,26:1
22,1:2
22,4:2
22,5:2
22,6:2
22,7:2
22,8:3
22,9:1
22,10:2
22,11:2
22,17:2
22,18:2
22,19:2
22,23:1
22,26:1
23,1:1
23,4:1
23,5:1
23,6:1
23,7:3
23,8:2
23,10:3
23,11:3
23,17:1
23,18:3
23,19:3
23,24:1
23,25:1
24,1:2
24,4:2
24,5:2
24,6:2
24,7:2
24,8:3
24,9:1
24,11:2
24,15:3
24,17:2
24,18:2
24,19:2
24,23:1
25,1:2
25,4:2
25,5:2
25,6:2
25,7:2
25,8:3
25,9:1
25,11:2
25,15:3
25,17:2
25,18:2
25,19:2
25,23:1
25,26:1
26,11:3
26,15:2
26,17:1
26,18:3
26,19:3
26,21:1
26,22:1
27,11:3
27,17:1
27,18:3
27,19:3
28,11:3
28,17:1
28,18:3
28,19:3
29,11:3
29,17:1
29,18:3
29,19:3
30,11:3
30,17:1
30,18:3
30,19:3

<setup times backward>
1,15:1
1,16:1
2,8:1
2,16:1
3,8:1
3,15:1
4,15:1
4,16:1
5,15:1
5,16:1
6,15:1
6,16:1
7,1:4
7,2:4
7,3:4
7,4:4
7,5:4
7,6:4
7,12:4
7,13:4
7,15:5
7,16:5
7,17:4
7,20:2
7,21:2
7,22:2
7,23:3
7,24:2
7,25:2
9,1:1
9,2:1
9,3:1
9,4:1
9,5:1
9,6:1
9,8:2
9,12:1
9,13:1
9,15:2
9,16:2
9,17:1
10,1:4
10,2:4
10,3:4
10,4:4
10,5:4
10,6:4
10,8:5
10,9:3
10,12:4
10,13:4
10,15:5
10,16:5
10,17:4
10,20:2
10,21:2
10,22:2
10,23:3
11,1:4
11,2:4
11,3:4
11,4:4
11,5:4
11,6:4
11,8:5
11,9:3
11,12:4
11,13:4
11,15:5
11,16:5
11,17:4
11,20:2
11,21:2
11,22:2
11,23:3
11,24:2
11,25:2
11,26:3
11,27:3
11,28:3
11,29:3
11,30:3
12,8:1
12,16:1
13,8:1
13,16:1
14,1:4
14,2:4
14,3:4
14,4:4
14,5:4
14,6:4
14,8:5
14,9:3
14,12:4
14,13:4
14,16:5
14,17:4
17,8:1
17,15:1
17,16:1
18,1:4
18,2:4
18,3:4
18,4:4
18,5:4
18,6:4
18,8:5
18,9:3
18,12:4
18,13:4
18,15:5
18,16:5
18,17:4
18,20:2
18,21:2
18,22:2
18,23:3
18,24:2
18,25:2
18,26:3
18,27:3
18,28:3
18,29:3
18,30:3
19,1:4
19,2:4
19,3:4
19,4:4
19,5:4
19,6:4
19,8:5
19,9:3
19,12:4
19,13:4
19,15:5
19,16:5
19,17:4
19,20:2
19,21:2
19,22:2
19,23:3
19,24:2
19,25:2
19,26:3
19,27:3
19,28:3
19,29:3
19,30:3
20,1:2
20,2:2
20,3:2
20,4:2
20,5:2
20,6:2
20,8:3
20,9:1
20,12:2
20,13:2
20,15:3
20,16:3
20,17:2
21,1:2
21,2:2
21,3:2
21,4:2
21,5:2
21,6:2
21,8:3
21,9:1
21,12:2
21,13:2
21,15:3
21,16:3
21,17:2
21,26:1
22,1:2
22,2:2
22,3:2
22,4:2
22,5:2
22,6:2
22,8:3
22,9:1
22,12:2
22,13:2
22,15:3
22,16:3
22,17:2
22,26:1
23,1:1
23,2:1
23,3:1
23,4:1
23,5:1
23,6:1
23,8:2
23,12:1
23,13:1
23,15:2
23,16:2
23,17:1
24,1:2
24,2:2
24,3:2
24,4:2
24,5:2
24,6:2
24,8:3
24,9:1
24,12:2
24,13:2
24,15:3
24,16:3
24,17:2
24,23:1
25,1:2
25,2:2
25,3:2
25,4:2
25,5:2
25,6:2
25,8:3
25,9:1
25,12:2
25,13:2
25,15:3
25,16:3
25,17:2
25,23:1
26,1:1
26,2:1
26,3:1
26,4:1
26,5:1
26,6:1
26,8:2
26,12:1
26,13:1
26,15:2
26,16:2
26,17:1
27,1:1
27,2:1
27,3:1
27,4:1
27,5:1
27,6:1
27,8:2
27,12:1
27,13:1
27,15:2
27,16:2
27,17:1
28,1:1
28,2:1
28,3:1
28,4:1
28,5:1
28,6:1
28,8:2
28,12:1
28,13:1
28,15:2
28,16:2
28,17:1
29,1:1
29,2:1
29,3:1
29,4:1
29,5:1
29,6:1
29,8:2
29,12:1
29,13:1
29,15:2
29,16:2
29,17:1
30,1:1
30,2:1
30,3:1
30,4:1
30,5:1
30,6:1
30,8:2
30,12:1
30,13:1
30,15:2
30,16:2
30,17:1

<end>

<optimal SALBP-1 value>
5


<rand seed>
467321153

